&bands
    prefix='alas'
    outdir   =  "./t/"
    filband  =  "aiida.bands.dat"
    
/
